211
0 18 16 147 117 119 118 209 205 76 
77 79 81 83 62 129 127 125 123 122 
121 120 126 206 124 128 130 139 138 89 
90 91 92 94 95 96 61 60 71 72 
145 144 143 146 93 141 137 135 133 132 
142 131 134 136 140 66 67 69 70 68 
57 58 56 156 59 158 104 105 103 102 
148 7 149 208 8 9 203 10 97 11 
98 99 100 101 46 45 44 43 42 41 
40 39 38 88 84 87 82 86 80 78 
85 65 55 64 63 159 207 160 161 162 
164 166 165 163 167 37 36 35 34 150 
33 32 31 28 30 155 29 75 47 48 
49 50 51 23 27 200 194 193 192 191 
190 189 157 187 188 186 185 184 183 175 
182 180 181 177 176 179 174 178 173 171 
172 169 170 168 197 153 202 201 198 152 
22 199 24 25 26 6 5 4 3 196 
73 74 2 15 195 14 13 12 106 204 
107 110 1 108 151 113 114 112 115 21 
116 20 19 17 54 52 154 53 109 111 
210 
